c Standarized MaxSat Instance
c{
c "sha1sum": "31475e341c7c0930113edba315236f085131419f",
c "nvars": 60,
c "ncls": 661,
c "total_lits": 1262,
c "nhards": 601,
c "nhard_nlits": 1202,
c "nhard_len_stats":
c    { "min": 2,
c      "max": 2,
c      "ave": 2.0000,
c      "stddev": 0.0000 },
c "nsofts": 60,
c "nsoft_nlits": 60,
c "nsoft_len_stats":
c    { "min": 1,
c      "max": 1,
c      "ave": 1.0000,
c      "stddev": 0.0000 },
c "nsoft_wts": 1,
c "soft_wt_stats":
c    { "min": 1,
c      "max": 1,
c      "ave": 1.0000,
c      "stddev": 0.0000 }
c}
c------------------------------------------------------------
c optimum value = 36671
1 1 0
1 2 0
1 3 0
1 4 0
1 5 0
1 6 0
1 7 0
1 8 0
1 9 0
1 10 0
1 11 0
1 12 0
1 13 0
1 14 0
1 15 0
1 16 0
1 17 0
1 18 0
1 19 0
1 20 0
1 21 0
1 22 0
1 23 0
1 24 0
1 25 0
1 26 0
1 27 0
1 28 0
1 29 0
1 30 0
1 31 0
1 32 0
1 33 0
1 34 0
1 35 0
1 36 0
1 37 0
1 38 0
1 39 0
1 40 0
1 41 0
1 42 0
1 43 0
1 44 0
1 45 0
1 46 0
1 47 0
1 48 0
1 49 0
1 50 0
1 51 0
1 52 0
1 53 0
1 54 0
1 55 0
1 56 0
1 57 0
1 58 0
1 59 0
1 60 0
h -1 -2 0
h -1 -3 0
h -1 -4 0
h -1 -5 0
h -1 -6 0
h -2 -3 0
h -2 -4 0
h -2 -5 0
h -2 -6 0
h -3 -4 0
h -3 -5 0
h -3 -6 0
h -4 -5 0
h -4 -6 0
h -5 -6 0
h -7 -8 0
h -7 -9 0
h -7 -10 0
h -7 -11 0
h -7 -12 0
h -8 -9 0
h -8 -10 0
h -8 -11 0
h -8 -12 0
h -9 -10 0
h -9 -11 0
h -9 -12 0
h -10 -11 0
h -10 -12 0
h -11 -12 0
h -13 -14 0
h -13 -15 0
h -13 -16 0
h -13 -17 0
h -13 -18 0
h -14 -15 0
h -14 -16 0
h -14 -17 0
h -14 -18 0
h -15 -16 0
h -15 -17 0
h -15 -18 0
h -16 -17 0
h -16 -18 0
h -17 -18 0
h -19 -20 0
h -19 -21 0
h -19 -22 0
h -19 -23 0
h -19 -24 0
h -20 -21 0
h -20 -22 0
h -20 -23 0
h -20 -24 0
h -21 -22 0
h -21 -23 0
h -21 -24 0
h -22 -23 0
h -22 -24 0
h -23 -24 0
h -25 -26 0
h -25 -27 0
h -25 -28 0
h -25 -29 0
h -25 -30 0
h -26 -27 0
h -26 -28 0
h -26 -29 0
h -26 -30 0
h -27 -28 0
h -27 -29 0
h -27 -30 0
h -28 -29 0
h -28 -30 0
h -29 -30 0
h -31 -32 0
h -31 -33 0
h -31 -34 0
h -31 -35 0
h -31 -36 0
h -32 -33 0
h -32 -34 0
h -32 -35 0
h -32 -36 0
h -33 -34 0
h -33 -35 0
h -33 -36 0
h -34 -35 0
h -34 -36 0
h -35 -36 0
h -37 -38 0
h -37 -39 0
h -37 -40 0
h -37 -41 0
h -37 -42 0
h -38 -39 0
h -38 -40 0
h -38 -41 0
h -38 -42 0
h -39 -40 0
h -39 -41 0
h -39 -42 0
h -40 -41 0
h -40 -42 0
h -41 -42 0
h -43 -44 0
h -43 -45 0
h -43 -46 0
h -43 -47 0
h -43 -48 0
h -44 -45 0
h -44 -46 0
h -44 -47 0
h -44 -48 0
h -45 -46 0
h -45 -47 0
h -45 -48 0
h -46 -47 0
h -46 -48 0
h -47 -48 0
h -49 -50 0
h -49 -51 0
h -49 -52 0
h -49 -53 0
h -49 -54 0
h -50 -51 0
h -50 -52 0
h -50 -53 0
h -50 -54 0
h -51 -52 0
h -51 -53 0
h -51 -54 0
h -52 -53 0
h -52 -54 0
h -53 -54 0
h -55 -56 0
h -55 -57 0
h -55 -58 0
h -55 -59 0
h -55 -60 0
h -56 -57 0
h -56 -58 0
h -56 -59 0
h -56 -60 0
h -57 -58 0
h -57 -59 0
h -57 -60 0
h -58 -59 0
h -58 -60 0
h -59 -60 0
h -28 -60 0
h -25 -59 0
h -27 -58 0
h -26 -55 0
h -27 -56 0
h -25 -57 0
h -27 -57 0
h -25 -56 0
h -29 -56 0
h -36 -55 0
h -35 -55 0
h -31 -59 0
h -34 -55 0
h -33 -55 0
h -34 -60 0
h -35 -58 0
h -32 -57 0
h -35 -56 0
h -21 -29 0
h -24 -30 0
h -22 -25 0
h -24 -27 0
h -21 -30 0
h -23 -25 0
h -20 -28 0
h -23 -28 0
h -23 -29 0
h -27 -42 0
h -26 -37 0
h -30 -41 0
h -28 -41 0
h -30 -42 0
h -27 -37 0
h -30 -40 0
h -25 -42 0
h -26 -41 0
h -9 -54 0
h -9 -50 0
h -12 -52 0
h -8 -49 0
h -10 -54 0
h -8 -52 0
h -8 -53 0
h -10 -49 0
h -11 -54 0
h -11 -36 0
h -12 -35 0
h -9 -36 0
h -9 -35 0
h -12 -31 0
h -10 -34 0
h -11 -33 0
h -8 -31 0
h -9 -32 0
h -5 -22 0
h -6 -20 0
h -2 -23 0
h -4 -22 0
h -1 -20 0
h -2 -22 0
h -2 -21 0
h -4 -20 0
h -3 -23 0
h -49 -56 0
h -54 -57 0
h -53 -60 0
h -54 -55 0
h -52 -60 0
h -52 -56 0
h -51 -60 0
h -50 -55 0
h -51 -55 0
h -5 -43 0
h -6 -47 0
h -2 -44 0
h -3 -43 0
h -3 -44 0
h -6 -43 0
h -4 -46 0
h -2 -47 0
h -5 -46 0
h -29 -31 0
h -27 -36 0
h -27 -34 0
h -26 -34 0
h -29 -33 0
h -30 -33 0
h -29 -32 0
h -26 -31 0
h -27 -32 0
h -5 -59 0
h -1 -59 0
h -1 -57 0
h -2 -56 0
h -6 -58 0
h -6 -60 0
h -4 -58 0
h -2 -60 0
h -1 -55 0
h -29 -51 0
h -25 -49 0
h -26 -54 0
h -25 -51 0
h -30 -54 0
h -29 -53 0
h -26 -51 0
h -27 -52 0
h -26 -49 0
h -51 -57 0
h -52 -58 0
h -49 -57 0
h -52 -59 0
h -53 -56 0
h -50 -57 0
h -19 -27 0
h -22 -28 0
h -19 -30 0
h -24 -25 0
h -23 -27 0
h -23 -26 0
h -21 -28 0
h -9 -21 0
h -7 -19 0
h -8 -22 0
h -10 -23 0
h -12 -22 0
h -7 -23 0
h -11 -20 0
h -8 -21 0
h -9 -19 0
h -41 -43 0
h -41 -47 0
h -38 -43 0
h -39 -47 0
h -40 -44 0
h -37 -43 0
h -42 -44 0
h -42 -48 0
h -41 -44 0
h -18 -31 0
h -15 -33 0
h -18 -34 0
h -14 -32 0
h -13 -34 0
h -17 -35 0
h -14 -34 0
h -15 -35 0
h -18 -35 0
h -28 -55 0
h -28 -57 0
h -30 -55 0
h -30 -60 0
h -26 -57 0
h -29 -55 0
h -10 -56 0
h -9 -59 0
h -9 -58 0
h -9 -57 0
h -8 -56 0
h -11 -58 0
h -7 -58 0
h -11 -59 0
h -11 -55 0
h -31 -44 0
h -34 -43 0
h -34 -44 0
h -36 -43 0
h -35 -45 0
h -35 -44 0
h -35 -47 0
h -33 -44 0
h -32 -48 0
h -16 -51 0
h -18 -49 0
h -14 -51 0
h -17 -54 0
h -14 -49 0
h -15 -53 0
h -15 -52 0
h -16 -49 0
h -13 -49 0
h -40 -47 0
h -41 -45 0
h -40 -48 0
h -37 -44 0
h -30 -50 0
h -25 -54 0
h -30 -51 0
h -28 -53 0
h -27 -54 0
h -28 -49 0
h -30 -52 0
h -25 -45 0
h -29 -44 0
h -27 -48 0
h -25 -46 0
h -28 -46 0
h -28 -48 0
h -27 -45 0
h -27 -44 0
h -30 -47 0
h -8 -14 0
h -9 -14 0
h -12 -18 0
h -10 -17 0
h -12 -15 0
h -11 -14 0
h -12 -13 0
h -9 -13 0
h -11 -17 0
h -12 -28 0
h -9 -29 0
h -12 -26 0
h -8 -28 0
h -12 -27 0
h -11 -27 0
h -8 -26 0
h -9 -27 0
h -8 -27 0
h -13 -20 0
h -14 -20 0
h -17 -21 0
h -16 -20 0
h -15 -23 0
h -14 -21 0
h -14 -22 0
h -17 -24 0
h -18 -20 0
h -22 -55 0
h -24 -58 0
h -24 -60 0
h -22 -56 0
h -20 -59 0
h -22 -59 0
h -23 -55 0
h -21 -55 0
h -21 -56 0
h -27 -49 0
h -28 -54 0
h -28 -52 0
h -26 -32 0
h -28 -32 0
h -28 -35 0
h -25 -36 0
h -30 -36 0
h -26 -35 0
h -25 -31 0
h -8 -48 0
h -9 -43 0
h -11 -48 0
h -12 -48 0
h -8 -45 0
h -8 -47 0
h -7 -46 0
h -10 -47 0
h -7 -48 0
h -9 -48 0
h -8 -46 0
h -7 -47 0
h -10 -48 0
h -12 -46 0
h -7 -45 0
h -11 -47 0
h -30 -49 0
h -27 -51 0
h -28 -50 0
h -29 -54 0
h -25 -52 0
h -29 -50 0
h -7 -27 0
h -7 -29 0
h -8 -25 0
h -11 -25 0
h -11 -30 0
h -11 -29 0
h -37 -54 0
h -39 -51 0
h -39 -54 0
h -41 -49 0
h -41 -53 0
h -42 -52 0
h -42 -54 0
h -38 -49 0
h -41 -51 0
h -2 -26 0
h -6 -30 0
h -3 -30 0
h -4 -26 0
h -5 -29 0
h -1 -25 0
h -6 -29 0
h -5 -28 0
h -6 -28 0
h -16 -50 0
h -14 -54 0
h -14 -50 0
h -13 -52 0
h -47 -55 0
h -45 -57 0
h -46 -60 0
h -47 -57 0
h -47 -56 0
h -47 -58 0
h -46 -56 0
h -48 -55 0
h -43 -60 0
h -10 -28 0
h -11 -28 0
h -11 -26 0
h -7 -28 0
h -9 -60 0
h -9 -55 0
h -12 -59 0
h -7 -57 0
h -27 -53 0
h -27 -50 0
h -31 -52 0
h -31 -54 0
h -32 -52 0
h -36 -52 0
h -35 -52 0
h -33 -52 0
h -34 -54 0
h -34 -51 0
h -35 -50 0
h -27 -31 0
h -27 -35 0
h -29 -35 0
h -25 -35 0
h -26 -36 0
h -25 -33 0
h -29 -36 0
h -29 -49 0
h -23 -31 0
h -19 -33 0
h -23 -32 0
h -21 -31 0
h -19 -35 0
h -19 -32 0
h -20 -33 0
h -23 -33 0
h -24 -32 0
h -45 -54 0
h -45 -52 0
h -47 -49 0
h -46 -53 0
h -48 -49 0
h -47 -51 0
h -44 -53 0
h -45 -53 0
h -48 -54 0
h -5 -14 0
h -2 -13 0
h -4 -18 0
h -5 -16 0
h -3 -17 0
h -2 -14 0
h -4 -15 0
h -6 -18 0
h -1 -17 0
h -17 -55 0
h -15 -60 0
h -17 -58 0
h -18 -56 0
h -18 -55 0
h -13 -59 0
h -15 -58 0
h -13 -56 0
h -13 -55 0
h -12 -29 0
h -10 -30 0
h -10 -26 0
h -7 -30 0
h -27 -59 0
h -25 -55 0
h -30 -56 0
h -29 -58 0
h -30 -58 0
h -9 -18 0
h -9 -16 0
h -11 -18 0
h -11 -13 0
h -8 -13 0
h -8 -15 0
h -11 -16 0
h -7 -16 0
h -33 -40 0
h -36 -39 0
h -31 -37 0
h -35 -38 0
h -36 -42 0
h -32 -37 0
h -32 -41 0
h -34 -38 0
h -31 -40 0
h -48 -56 0
h -48 -58 0
h -45 -59 0
h -46 -57 0
h -46 -55 0
h -44 -56 0
h -6 -9 0
h -2 -8 0
h -5 -8 0
h -2 -7 0
h -4 -8 0
h -3 -12 0
h -5 -7 0
h -4 -11 0
h -6 -12 0
h -34 -39 0
h -34 -41 0
h -35 -39 0
h -35 -41 0
h -36 -37 0
h -36 -38 0
h -11 -49 0
h -9 -52 0
h -12 -49 0
h -31 -53 0
h -32 -53 0
h -35 -54 0
h -36 -53 0
h -32 -54 0
h -36 -54 0
h -48 -50 0
h -48 -52 0
h -43 -52 0
h -45 -51 0
h -46 -51 0
h -47 -50 0
h -28 -51 0
h -8 -43 0
h -11 -46 0
h -43 -54 0
h -43 -51 0
h -44 -52 0
h -43 -50 0
h -47 -53 0
h -27 -46 0
h -25 -47 0
h -26 -43 0
h -30 -48 0
h -27 -47 0
h -26 -48 0
h -15 -51 0
h -15 -54 0
h -17 -51 0
h -17 -50 0
h -18 -53 0
h -14 -52 0
